Read MPS format model from file dat/rmp/4node-base_4096_25.mps
Reading time = 0.30 seconds
: 4156 rows, 24153 columns, 897347 nonzeros
Gurobi Optimizer version 9.0.0 build v9.0.0rc2 (linux64)
Optimize a model with 4156 rows, 24153 columns and 897347 nonzeros
Model fingerprint: 0x9898ab5e
Coefficient statistics:
  Matrix range     [1e-03, 2e+01]
  Objective range  [2e-02, 1e+04]
  Bounds range     [0e+00, 0e+00]
  RHS range        [1e+00, 8e+01]
Ordering time: 0.01s

Barrier statistics:
 AA' NZ     : 2.120e+05
 Factor NZ  : 2.625e+05 (roughly 13 MBytes of memory)
 Factor Ops : 1.697e+07 (less than 1 second per iteration)
 Threads    : 1

                  Objective                Residual
Iter       Primal          Dual         Primal    Dual     Compl     Time
   0   1.99066045e+07  0.00000000e+00  5.65e+02 2.40e+02  4.41e+04     0s
   1   5.29232756e+05 -2.30423467e+07  1.40e+01 9.38e+02  2.15e+03     0s
   2   6.42185371e+03 -8.91499404e+06  2.29e-02 1.26e+01  3.72e+02     0s
   3   1.16558588e+03 -1.36430027e+06  2.08e-03 1.61e+00  5.69e+01     0s
   4  -1.48300407e+02 -1.37501836e+05  4.66e-06 1.47e-01  5.72e+00     0s
   5  -2.73602837e+02 -7.01616874e+03  5.22e-07 5.17e-03  2.80e-01     0s
   6  -3.12860996e+02 -7.54602828e+02  1.44e-09 2.19e-04  1.83e-02     1s
   7  -3.41527534e+02 -6.24815871e+02  9.50e-10 9.41e-05  1.18e-02     1s
   8  -3.69911690e+02 -5.05271189e+02  9.19e-09 2.34e-05  5.61e-03     1s
   9  -3.94658372e+02 -4.56002520e+02  3.84e-08 6.63e-06  2.54e-03     1s
  10  -4.03871330e+02 -4.43992234e+02  7.34e-08 2.87e-06  1.66e-03     1s
  11  -4.09062127e+02 -4.33314363e+02  5.04e-08 1.25e-06  1.01e-03     1s
  12  -4.13842157e+02 -4.29408791e+02  4.44e-08 5.32e-07  6.45e-04     1s
  13  -4.18964940e+02 -4.27199090e+02  1.51e-07 2.24e-07  3.41e-04     1s
  14  -4.22074873e+02 -4.25845775e+02  2.56e-07 7.64e-08  1.56e-04     1s
  15  -4.24119419e+02 -4.25032878e+02  1.12e-06 1.31e-08  3.78e-05     1s
  16  -4.24674996e+02 -4.24739995e+02  2.37e-06 3.43e-10  2.69e-06     1s
  17  -4.24675014e+02 -4.24738384e+02  2.27e-06 3.13e-10  2.62e-06     1s
  18  -4.24675018e+02 -4.24738413e+02  2.23e-06 3.07e-10  2.63e-06     1s
  19  -4.24675022e+02 -4.24738389e+02  3.24e-06 3.07e-10  2.62e-06     1s
  20  -4.24675036e+02 -4.24738299e+02  3.85e-06 3.06e-10  2.62e-06     1s
  21  -4.24675043e+02 -4.24739113e+02  3.66e-06 3.05e-10  2.65e-06     2s
  22  -4.24675099e+02 -4.24737894e+02  7.54e-06 2.61e-10  2.60e-06     2s
  23  -4.24675227e+02 -4.24738230e+02  1.51e-05 2.58e-10  2.61e-06     2s
  24  -4.24675407e+02 -4.24738150e+02  2.71e-05 2.56e-10  2.59e-06     2s
  25  -4.24675572e+02 -4.24738150e+02  9.28e-05 2.56e-10  2.58e-06     2s
  26  -4.24675926e+02 -4.24736896e+02  5.29e-05 2.46e-10  2.52e-06     2s
  27  -4.24676413e+02 -4.24736548e+02  1.42e-04 2.37e-10  2.46e-06     2s
  28  -4.24676891e+02 -4.24735431e+02  7.68e-05 2.37e-10  2.42e-06     2s
  29  -4.24679144e+02 -4.24733842e+02  1.44e-04 1.55e-10  2.29e-06     2s
  30  -4.24682279e+02 -4.24733500e+02  1.69e-04 1.50e-10  2.17e-06     2s
  31  -4.24683886e+02 -4.24731302e+02  3.25e-04 1.27e-10  1.97e-06     2s
  32  -4.24693042e+02 -4.24730031e+02  7.98e-04 1.17e-10  1.52e-06     2s
  33  -4.24690915e+02 -4.24728264e+02  6.54e-04 1.12e-10  1.46e-06     2s
  34  -4.24694001e+02 -4.24724521e+02  4.14e-04 8.15e-11  1.07e-06     3s
  35  -4.24697962e+02 -4.24723783e+02  3.60e-04 7.50e-11  9.60e-07     3s
  36  -4.24696847e+02 -4.24723716e+02  4.04e-04 7.42e-11  9.43e-07     3s
  37  -4.24695751e+02 -4.24723698e+02  4.36e-04 7.42e-11  9.42e-07     3s
  38  -4.24700068e+02 -4.24723429e+02  3.94e-04 7.01e-11  8.62e-07     3s
  39  -4.24701046e+02 -4.24722657e+02  3.97e-04 6.30e-11  8.04e-07     3s
  40  -4.24703422e+02 -4.24721784e+02  4.73e-04 5.57e-11  7.17e-07     3s
  41  -4.24705080e+02 -4.24718645e+02  3.70e-04 2.80e-11  4.83e-07     3s
  42  -4.24706330e+02 -4.24718593e+02  4.71e-04 2.73e-11  4.55e-07     3s
  43  -4.24706467e+02 -4.24718525e+02  4.70e-04 2.65e-11  4.50e-07     3s
  44  -4.24710087e+02 -4.24717483e+02  1.04e-03 1.56e-11  2.72e-07     3s
  45  -4.24710510e+02 -4.24716228e+02  9.44e-04 1.46e-11  1.97e-07     3s
  46  -4.24719261e+02 -4.24716160e+02  5.82e-04 1.46e-11  2.43e-08     3s
  47  -4.24720990e+02 -4.24716078e+02  3.54e-03 1.46e-11  1.76e-08     3s
  48  -4.24720982e+02 -4.24716070e+02  3.53e-03 1.46e-11  1.74e-08     4s
  49  -4.24718168e+02 -4.24716049e+02  2.75e-03 1.46e-11  1.44e-08     4s
  50  -4.24718514e+02 -4.24716054e+02  2.77e-03 1.46e-11  1.44e-08     4s
  51  -4.24717511e+02 -4.24716050e+02  2.09e-03 2.91e-11  1.15e-08     4s
  52  -4.24716708e+02 -4.24716083e+02  2.13e-03 1.46e-11  8.34e-09     4s
  53  -4.24717035e+02 -4.24716007e+02  2.13e-03 1.46e-11  8.02e-09     4s
  54  -4.24716968e+02 -4.24716014e+02  2.05e-03 1.46e-11  7.61e-09     4s
  55  -4.24716425e+02 -4.24716009e+02  1.69e-03 1.46e-11  6.25e-09     4s
  56  -4.24718984e+02 -4.24716021e+02  1.26e-03 1.46e-11  3.19e-09     4s
  57  -4.24718953e+02 -4.24716015e+02  1.24e-03 2.91e-11  2.71e-09     4s
  58  -4.24720226e+02 -4.24715827e+02  7.57e-04 1.46e-11  2.29e-09     4s
  59  -4.24719737e+02 -4.24715826e+02  8.12e-04 2.91e-11  1.96e-09     4s
  60  -4.24719114e+02 -4.24715819e+02  5.86e-04 2.91e-11  1.70e-09     4s
  61  -4.24718159e+02 -4.24715499e+02  1.45e-03 1.46e-11  1.28e-09     4s
  62  -4.24716867e+02 -4.24715452e+02  1.13e-03 1.46e-11  5.81e-10     5s
  63  -4.24720225e+02 -4.24715680e+02  1.05e-03 1.46e-11  5.57e-10     5s
  64  -4.24717536e+02 -4.24715536e+02  9.92e-04 2.91e-11  4.24e-10     5s
  65  -4.24720214e+02 -4.24715501e+02  1.47e-03 1.46e-11  2.97e-10     5s
  66  -4.24707304e+02 -4.24715505e+02  9.25e-04 1.46e-11  6.53e-11     5s
  67  -4.24715639e+02 -4.24715275e+02  1.15e-03 1.46e-11  1.53e-11     5s
  68  -4.24712297e+02 -4.24715348e+02  6.79e-04 1.46e-11  6.91e-10     5s
  69  -4.24712269e+02 -4.24715393e+02  8.67e-04 1.46e-11  9.48e-12     5s
  70  -4.24710507e+02 -4.24715275e+02  7.91e-04 1.46e-11  6.68e-12     5s
  71  -4.24710422e+02 -4.24715305e+02  9.23e-04 1.46e-11  3.54e-11     5s
  72  -4.24710991e+02 -4.24715293e+02  1.11e-03 1.46e-11  6.78e-11     5s

Barrier performed 72 iterations in 5.30 seconds
Sub-optimal termination - objective -4.24119419e+02

Solve time: 5.299047378
Barrier iterations: 72
